116787
147114
465412
27417
322074
875193
49501
438322
283893
442532
131833
81436
240724
840822
592982
300433
322138
886962
731993
46181
266526
14147
984958
598329
979738
857166
559044
771750
710011
613572
298345
762089
506528
840517
280077
292019
894695
650016
785596
332870
267020
113260
727529
30103
536671
633676
68749
890049
844026
904982
6571
14342
633522
134475
888172
738830
965415
968050
834933
121777
871707
157476
956948
754528
696814
616619
525010
445597
282997
223441
843947
881209
107952
806830
945675
529750
293199
524595
482214
221360
328153
729016
641499
617514
194323
185795
698106
941888
43023
626409
700015
764128
429890
826238
10718
29184
202032
377407
455681
423239
